
  32    4
  10   10   10   10

   0   0   0   0   0   2 2 3 
   3   0   1   1   1   4 7 6 5 4 
   2   0   7   2   4   4 8 7 6 4 
  10   1   4   3   0   3 11 10 9 
   7   4   4   6   0   3 12 9 8 
   2   6   2   0   5   3 12 11 9 
   6   3   5   3   0   3 13 12 11 
   6   2   1   7   0   2 13 11 
   3   3   4   5   0   3 16 15 13 
   7   0   2   4   6   1 12 
   6   4   3   1   0   3 16 15 14 
   7   0   5   3   5   3 16 15 14 
   5   6   3   0   4   1 14 
   5   0   5   3   3   6 24 23 22 21 19 17 
   3   0   4   3   6   6 24 23 22 21 19 17 
   2   6   3   0   6   5 24 23 22 21 17 
   5   4   7   0   4   2 20 18 
  10   4   3   0   2   5 31 28 27 26 25 
   1   4   3   0   4   4 31 27 26 25 
   7   4   0   2   2   4 31 29 26 25 
   3   4   8   0   2   3 31 27 26 
   4   4   3   5   0   3 31 29 25 
   4   3   3   0   9   3 29 26 25 
  10   4   0   5   3   2 30 29 
   5   6   2   3   0   1 30 
   7   3   6   6   0   1 30 
   4   5   6   3   0   1 29 
   7   1   0   6   3   1 29 
   7   0   3   7   3   1 32
   5   0   7   6   5   1 32
   9   7   0   4   3   1 32
   0   0   0   0   0   0 
